************************************************************************
file with basedata            : mm42_.bas
initial value random generator: 1075541439
************************************************************************
projects                      :  1
jobs (incl. supersource/sink ):  12
horizon                       :  76
RESOURCES
  - renewable                 :  2   R
  - nonrenewable              :  2   N
  - doubly constrained        :  0   D
************************************************************************
PROJECT INFORMATION:
pronr.  #jobs rel.date duedate tardcost  MPM-Time
    1     10      0       20        5       20
************************************************************************
PRECEDENCE RELATIONS:
jobnr.    #modes  #successors   successors
   0        1          3           1   2   3
   1        3          3           4   5  10
   2        3          3           4   6   9
   3        3          1          10
   4        3          1           8
   5        3          1           9
   6        3          2           7  10
   7        3          1           8
   8        3          1          11
   9        3          1          11
  10        3          1          11
  11        1          0        
************************************************************************
REQUESTS/DURATIONS:
jobnr. mode duration  R 1  R 2  R 3  R 4  E(W 1)  E(W 2)
------------------------------------------------------------------------
  0      1     0       0    0    0    0     0       0
  1      1     4       3    4    0    2    28       8
  2      1     2       3    5    0    8    16      16
  3      1     2       9    7    3    0    32       6
  4      1     4       6   10    0    9    64      36
  5      1     1       6   10    0    5    16       5
  6      1     8       9    8    0    6    136      48
  7      1     4      10    7    0    7    68      28
  8      1     6       7    7    0    5    84      30
  9      1     6       4    8    0    9    72      54
 10      1     2       8    8    3    0    32       6
 11      1     0       0    0    0    0     0       0
************************************************************************
RESOURCEAVAILABILITIES:
  R 1  R 2
   35   55
************************************************************************
RESOURCE LIMITS:
jobnr.  l(R 1)  u(R 1)  l(R 2)  u(R 2)
------------------------------------------------------------------------
  0        0       0       0       0
  1        4       7       1       2
  2        5       8       4       8
  3        9      16       2       3
  4        8      16       5       9
  5        8      16       3       5
  6        9      17       3       6
  7        9      17       4       7
  8        8      14       3       5
  9        6      12       5       9
 10        8      16       2       3
 11        0       0       0       0
************************************************************************
SCENARIOS:
------------------------------------------------------------------------
RESOURCE k = 1
s = 1: (0, 40, 11, 44, 83, 14, 99, 64, 70, 112, 26, 0)
s = 2: (0, 40, 16, 30, 51, 21, 144, 65, 102, 86, 54, 0)
s = 3: (0, 37, 18, 26, 57, 13, 170, 71, 92, 53, 42, 0)
s = 4: (0, 24, 19, 43, 56, 21, 115, 39, 48, 82, 27, 0)
s = 5: (0, 34, 14, 38, 68, 14, 126, 52, 94, 103, 26, 0)
s = 6: (0, 25, 14, 25, 52, 15, 99, 49, 55, 110, 30, 0)
s = 7: (0, 30, 14, 36, 57, 11, 82, 60, 62, 54, 30, 0)
s = 8: (0, 17, 17, 36, 94, 16, 184, 100, 81, 82, 31, 0)
s = 9: (0, 30, 11, 56, 54, 12, 211, 61, 105, 117, 40, 0)
s = 10: (0, 33, 13, 51, 87, 17, 164, 53, 84, 52, 22, 0)
s = 11: (0, 31, 24, 20, 52, 16, 123, 70, 56, 85, 36, 0)
s = 12: (0, 32, 17, 34, 77, 14, 93, 87, 45, 50, 38, 0)
s = 13: (0, 29, 28, 36, 46, 11, 78, 80, 65, 75, 37, 0)
s = 14: (0, 37, 23, 43, 88, 20, 88, 53, 57, 77, 36, 0)
s = 15: (0, 19, 14, 57, 67, 17, 116, 68, 68, 49, 42, 0)
s = 16: (0, 20, 18, 22, 53, 15, 146, 92, 78, 65, 31, 0)
s = 17: (0, 25, 20, 45, 80, 16, 194, 48, 94, 45, 48, 0)
s = 18: (0, 33, 14, 31, 77, 13, 112, 75, 50, 101, 27, 0)
s = 19: (0, 21, 21, 32, 65, 20, 138, 101, 80, 53, 31, 0)
s = 20: (0, 27, 14, 32, 83, 13, 190, 45, 135, 42, 20, 0)
s = 21: (0, 40, 12, 42, 72, 16, 140, 42, 99, 44, 37, 0)
s = 22: (0, 35, 20, 24, 49, 14, 102, 47, 76, 58, 43, 0)
s = 23: (0, 31, 12, 46, 63, 13, 174, 73, 53, 46, 50, 0)
s = 24: (0, 30, 19, 27, 77, 27, 143, 84, 112, 57, 56, 0)
s = 25: (0, 27, 17, 24, 48, 16, 156, 122, 98, 70, 31, 0)
s = 26: (0, 30, 18, 32, 42, 15, 89, 87, 86, 131, 44, 0)
s = 27: (0, 35, 31, 35, 69, 19, 111, 89, 57, 69, 36, 0)
s = 28: (0, 36, 14, 24, 94, 13, 192, 65, 70, 42, 30, 0)
s = 29: (0, 20, 20, 27, 41, 20, 129, 49, 87, 84, 26, 0)
s = 30: (0, 17, 18, 29, 72, 12, 126, 52, 62, 67, 23, 0)
s = 31: (0, 32, 25, 33, 76, 18, 182, 82, 86, 82, 20, 0)
s = 32: (0, 26, 20, 26, 57, 16, 172, 90, 75, 49, 37, 0)
s = 33: (0, 25, 19, 33, 48, 16, 191, 39, 62, 41, 33, 0)
s = 34: (0, 24, 18, 39, 79, 15, 139, 47, 86, 64, 22, 0)
s = 35: (0, 15, 23, 20, 76, 16, 115, 47, 53, 68, 23, 0)
s = 36: (0, 19, 13, 35, 55, 17, 152, 52, 99, 87, 28, 0)
s = 37: (0, 39, 21, 25, 100, 17, 149, 90, 103, 59, 33, 0)
s = 38: (0, 24, 20, 38, 74, 18, 138, 107, 72, 48, 29, 0)
s = 39: (0, 29, 10, 34, 44, 11, 166, 39, 106, 65, 24, 0)
s = 40: (0, 34, 13, 21, 59, 19, 128, 91, 66, 90, 40, 0)
s = 41: (0, 43, 9, 31, 44, 21, 163, 52, 59, 93, 31, 0)
s = 42: (0, 20, 17, 23, 66, 18, 170, 53, 94, 89, 36, 0)
s = 43: (0, 31, 19, 21, 55, 15, 103, 51, 54, 53, 28, 0)
s = 44: (0, 32, 18, 53, 49, 13, 161, 71, 83, 73, 25, 0)
s = 45: (0, 26, 25, 39, 82, 12, 164, 61, 66, 59, 21, 0)
s = 46: (0, 44, 14, 31, 67, 10, 98, 59, 127, 86, 24, 0)
s = 47: (0, 35, 15, 30, 92, 12, 139, 57, 73, 72, 24, 0)
s = 48: (0, 16, 9, 30, 46, 13, 205, 68, 66, 104, 39, 0)
s = 49: (0, 29, 9, 51, 72, 14, 129, 82, 80, 53, 55, 0)
s = 50: (0, 33, 16, 32, 61, 16, 87, 73, 104, 71, 27, 0)
s = 51: (0, 16, 17, 27, 35, 24, 121, 54, 86, 105, 29, 0)
s = 52: (0, 31, 17, 40, 73, 13, 173, 53, 69, 47, 32, 0)
s = 53: (0, 16, 17, 19, 117, 16, 184, 42, 63, 70, 30, 0)
s = 54: (0, 38, 16, 43, 112, 17, 146, 45, 90, 114, 32, 0)
s = 55: (0, 32, 21, 29, 57, 13, 197, 69, 78, 58, 46, 0)
s = 56: (0, 42, 13, 27, 64, 19, 134, 74, 75, 76, 34, 0)
s = 57: (0, 34, 14, 19, 87, 11, 189, 72, 69, 67, 52, 0)
s = 58: (0, 27, 26, 30, 84, 19, 164, 49, 49, 87, 42, 0)
s = 59: (0, 19, 18, 31, 58, 14, 101, 90, 111, 100, 36, 0)
s = 60: (0, 48, 11, 35, 54, 19, 134, 52, 100, 85, 22, 0)
s = 61: (0, 19, 12, 38, 65, 26, 110, 106, 77, 91, 34, 0)
s = 62: (0, 43, 17, 38, 95, 24, 158, 88, 97, 59, 38, 0)
s = 63: (0, 28, 10, 25, 72, 16, 177, 78, 156, 86, 26, 0)
s = 64: (0, 32, 29, 30, 68, 28, 159, 66, 96, 98, 42, 0)
s = 65: (0, 37, 12, 35, 81, 29, 118, 64, 72, 94, 31, 0)
s = 66: (0, 26, 12, 54, 68, 23, 131, 40, 112, 69, 41, 0)
s = 67: (0, 27, 15, 30, 39, 19, 156, 130, 74, 122, 29, 0)
s = 68: (0, 21, 15, 31, 63, 13, 171, 92, 79, 69, 19, 0)
s = 69: (0, 29, 18, 61, 134, 13, 97, 96, 109, 48, 41, 0)
s = 70: (0, 29, 21, 32, 44, 19, 114, 54, 57, 52, 39, 0)
s = 71: (0, 26, 13, 30, 57, 14, 104, 52, 111, 54, 29, 0)
s = 72: (0, 35, 16, 65, 55, 14, 154, 90, 51, 51, 38, 0)
s = 73: (0, 38, 29, 37, 52, 12, 201, 60, 53, 41, 20, 0)
s = 74: (0, 29, 23, 24, 78, 14, 155, 56, 49, 80, 30, 0)
s = 75: (0, 19, 19, 29, 53, 13, 140, 51, 99, 80, 30, 0)
s = 76: (0, 36, 19, 33, 60, 13, 84, 74, 110, 87, 30, 0)
s = 77: (0, 37, 10, 25, 86, 10, 127, 68, 73, 66, 25, 0)
s = 78: (0, 21, 32, 22, 101, 28, 126, 69, 60, 47, 37, 0)
s = 79: (0, 26, 14, 36, 62, 15, 143, 73, 87, 82, 42, 0)
s = 80: (0, 30, 22, 24, 49, 24, 199, 59, 78, 67, 19, 0)
s = 81: (0, 40, 20, 49, 91, 13, 82, 54, 89, 94, 21, 0)
s = 82: (0, 37, 24, 39, 48, 15, 184, 83, 68, 50, 40, 0)
s = 83: (0, 39, 21, 49, 53, 27, 155, 92, 81, 52, 30, 0)
s = 84: (0, 53, 16, 52, 57, 19, 116, 113, 101, 100, 33, 0)
s = 85: (0, 28, 17, 31, 77, 12, 160, 62, 108, 58, 46, 0)
s = 86: (0, 28, 19, 43, 35, 16, 164, 110, 97, 39, 27, 0)
s = 87: (0, 28, 22, 30, 55, 16, 84, 87, 47, 90, 30, 0)
s = 88: (0, 25, 29, 55, 84, 18, 83, 67, 82, 134, 31, 0)
s = 89: (0, 26, 16, 27, 54, 22, 181, 69, 119, 71, 29, 0)
s = 90: (0, 33, 24, 37, 59, 21, 147, 55, 101, 63, 29, 0)
s = 91: (0, 18, 19, 20, 59, 12, 102, 76, 75, 91, 26, 0)
s = 92: (0, 28, 21, 49, 84, 15, 119, 64, 78, 73, 24, 0)
s = 93: (0, 33, 10, 36, 99, 21, 202, 71, 97, 60, 38, 0)
s = 94: (0, 25, 21, 42, 53, 22, 130, 83, 54, 54, 31, 0)
s = 95: (0, 40, 13, 22, 53, 14, 127, 91, 94, 42, 27, 0)
s = 96: (0, 35, 12, 24, 67, 11, 97, 112, 74, 54, 21, 0)
s = 97: (0, 48, 15, 29, 78, 26, 144, 54, 119, 41, 23, 0)
s = 98: (0, 31, 21, 53, 77, 17, 130, 87, 105, 65, 21, 0)
s = 99: (0, 27, 21, 23, 63, 13, 118, 69, 70, 65, 20, 0)
s = 100: (0, 27, 17, 38, 62, 14, 172, 72, 61, 89, 44, 0)
s = 101: (0, 33, 14, 31, 53, 11, 163, 108, 60, 49, 27, 0)
s = 102: (0, 28, 15, 27, 40, 17, 108, 68, 62, 91, 32, 0)
s = 103: (0, 18, 17, 47, 79, 13, 146, 78, 79, 59, 21, 0)
s = 104: (0, 23, 17, 42, 47, 22, 177, 78, 96, 74, 27, 0)
s = 105: (0, 40, 19, 27, 86, 16, 160, 75, 98, 72, 27, 0)
s = 106: (0, 38, 13, 29, 49, 22, 107, 58, 67, 71, 28, 0)
s = 107: (0, 26, 13, 46, 59, 14, 104, 44, 82, 73, 45, 0)
s = 108: (0, 39, 12, 28, 46, 14, 121, 89, 65, 104, 20, 0)
s = 109: (0, 26, 19, 19, 53, 12, 96, 54, 101, 90, 57, 0)
s = 110: (0, 30, 18, 41, 64, 18, 138, 58, 69, 57, 36, 0)
s = 111: (0, 20, 25, 34, 55, 16, 126, 70, 83, 56, 25, 0)
s = 112: (0, 40, 13, 33, 51, 13, 161, 42, 47, 58, 32, 0)
s = 113: (0, 34, 19, 31, 68, 17, 107, 57, 114, 64, 21, 0)
s = 114: (0, 25, 12, 28, 50, 24, 229, 56, 65, 43, 25, 0)
s = 115: (0, 23, 19, 23, 52, 17, 91, 85, 75, 75, 29, 0)
s = 116: (0, 29, 22, 34, 79, 17, 105, 60, 98, 47, 41, 0)
s = 117: (0, 42, 13, 26, 103, 23, 126, 63, 74, 88, 33, 0)
s = 118: (0, 32, 12, 25, 57, 12, 109, 58, 75, 96, 19, 0)
s = 119: (0, 27, 24, 25, 76, 19, 135, 77, 89, 90, 22, 0)
s = 120: (0, 27, 17, 31, 47, 16, 193, 78, 92, 56, 22, 0)
s = 121: (0, 24, 16, 32, 59, 18, 103, 52, 94, 109, 33, 0)
s = 122: (0, 41, 9, 30, 84, 10, 185, 38, 68, 55, 22, 0)
s = 123: (0, 34, 20, 28, 62, 11, 168, 59, 62, 59, 42, 0)
s = 124: (0, 33, 21, 36, 64, 18, 106, 60, 77, 90, 21, 0)
s = 125: (0, 25, 18, 38, 96, 18, 149, 99, 65, 95, 19, 0)
s = 126: (0, 34, 15, 46, 95, 16, 154, 66, 114, 85, 36, 0)
s = 127: (0, 27, 16, 27, 72, 16, 184, 46, 146, 89, 30, 0)
s = 128: (0, 21, 9, 28, 49, 12, 103, 89, 112, 81, 32, 0)
s = 129: (0, 26, 20, 45, 91, 15, 170, 57, 80, 54, 39, 0)
s = 130: (0, 20, 14, 50, 88, 14, 214, 79, 63, 107, 31, 0)
s = 131: (0, 39, 20, 29, 96, 23, 229, 52, 73, 66, 25, 0)
s = 132: (0, 17, 12, 27, 41, 14, 170, 77, 50, 116, 30, 0)
s = 133: (0, 28, 13, 41, 48, 18, 105, 67, 88, 69, 46, 0)
s = 134: (0, 26, 18, 36, 96, 14, 160, 71, 82, 73, 25, 0)
s = 135: (0, 27, 27, 33, 48, 26, 164, 52, 121, 48, 23, 0)
s = 136: (0, 25, 23, 32, 78, 17, 209, 60, 62, 79, 26, 0)
s = 137: (0, 24, 12, 21, 71, 14, 115, 72, 80, 71, 31, 0)
s = 138: (0, 31, 16, 22, 86, 16, 73, 59, 65, 53, 22, 0)
s = 139: (0, 36, 25, 21, 42, 17, 154, 74, 85, 54, 36, 0)
s = 140: (0, 19, 16, 36, 109, 12, 78, 63, 76, 57, 22, 0)
s = 141: (0, 35, 26, 31, 70, 19, 122, 88, 114, 110, 40, 0)
s = 142: (0, 34, 12, 28, 98, 11, 130, 63, 102, 110, 29, 0)
s = 143: (0, 36, 22, 26, 46, 19, 195, 45, 72, 49, 25, 0)
s = 144: (0, 50, 15, 29, 55, 14, 141, 51, 94, 56, 45, 0)
s = 145: (0, 36, 22, 27, 91, 16, 83, 103, 97, 68, 28, 0)
s = 146: (0, 25, 26, 33, 46, 10, 145, 38, 57, 65, 33, 0)
s = 147: (0, 27, 21, 20, 54, 15, 89, 61, 50, 63, 28, 0)
s = 148: (0, 19, 20, 30, 68, 19, 120, 67, 70, 82, 39, 0)
s = 149: (0, 38, 16, 29, 65, 14, 186, 75, 75, 57, 53, 0)
s = 150: (0, 18, 14, 49, 84, 19, 123, 57, 89, 67, 42, 0)
s = 151: (0, 40, 12, 54, 58, 11, 107, 38, 116, 66, 52, 0)
s = 152: (0, 20, 21, 27, 50, 23, 110, 50, 61, 112, 38, 0)
s = 153: (0, 30, 10, 38, 43, 22, 163, 47, 81, 52, 36, 0)
s = 154: (0, 33, 13, 21, 47, 16, 161, 83, 93, 62, 29, 0)
s = 155: (0, 27, 17, 30, 64, 18, 180, 71, 63, 60, 34, 0)
s = 156: (0, 32, 11, 25, 94, 21, 193, 74, 94, 69, 32, 0)
s = 157: (0, 31, 15, 45, 93, 20, 162, 45, 71, 70, 28, 0)
s = 158: (0, 26, 23, 35, 87, 9, 113, 81, 78, 62, 25, 0)
s = 159: (0, 34, 28, 37, 66, 13, 121, 64, 59, 85, 37, 0)
s = 160: (0, 57, 15, 39, 45, 20, 166, 54, 66, 50, 32, 0)
s = 161: (0, 34, 10, 23, 81, 16, 164, 45, 85, 92, 22, 0)
s = 162: (0, 36, 20, 39, 58, 11, 169, 77, 124, 56, 33, 0)
s = 163: (0, 31, 16, 40, 95, 13, 126, 60, 59, 113, 32, 0)
s = 164: (0, 20, 11, 35, 50, 23, 115, 57, 112, 86, 19, 0)
s = 165: (0, 19, 17, 47, 79, 19, 128, 60, 64, 39, 34, 0)
s = 166: (0, 24, 13, 42, 70, 24, 83, 109, 64, 67, 34, 0)
s = 167: (0, 37, 25, 21, 87, 13, 134, 98, 56, 59, 31, 0)
s = 168: (0, 27, 20, 39, 69, 10, 177, 69, 104, 54, 27, 0)
s = 169: (0, 22, 17, 20, 92, 15, 158, 90, 94, 67, 29, 0)
s = 170: (0, 18, 19, 23, 72, 18, 157, 51, 118, 67, 26, 0)
s = 171: (0, 37, 18, 37, 77, 24, 118, 55, 59, 71, 45, 0)
s = 172: (0, 24, 23, 25, 81, 13, 83, 56, 96, 58, 52, 0)
s = 173: (0, 34, 15, 50, 81, 17, 260, 60, 76, 61, 63, 0)
s = 174: (0, 24, 15, 36, 67, 20, 155, 94, 70, 51, 34, 0)
s = 175: (0, 19, 14, 41, 54, 24, 154, 72, 106, 75, 41, 0)
s = 176: (0, 30, 13, 31, 64, 16, 162, 101, 62, 63, 29, 0)
s = 177: (0, 37, 13, 23, 94, 19, 125, 93, 76, 78, 21, 0)
s = 178: (0, 33, 24, 20, 94, 20, 106, 51, 67, 77, 43, 0)
s = 179: (0, 29, 12, 41, 54, 21, 114, 72, 94, 46, 37, 0)
s = 180: (0, 38, 11, 36, 46, 11, 170, 58, 77, 65, 28, 0)
s = 181: (0, 24, 23, 25, 80, 30, 144, 112, 71, 49, 31, 0)
s = 182: (0, 30, 11, 24, 49, 15, 102, 51, 153, 47, 38, 0)
s = 183: (0, 36, 27, 35, 65, 23, 108, 56, 76, 86, 44, 0)
s = 184: (0, 36, 11, 32, 66, 10, 124, 80, 68, 54, 25, 0)
s = 185: (0, 20, 10, 55, 80, 13, 99, 77, 76, 81, 39, 0)
s = 186: (0, 23, 16, 29, 67, 14, 78, 56, 61, 73, 27, 0)
s = 187: (0, 36, 16, 33, 37, 10, 127, 98, 91, 98, 27, 0)
s = 188: (0, 19, 15, 47, 55, 20, 81, 76, 82, 67, 24, 0)
s = 189: (0, 26, 15, 46, 72, 16, 194, 57, 97, 71, 42, 0)
s = 190: (0, 30, 20, 41, 67, 13, 179, 74, 76, 56, 25, 0)
s = 191: (0, 25, 16, 26, 67, 15, 93, 40, 91, 66, 19, 0)
s = 192: (0, 27, 15, 36, 90, 18, 93, 50, 102, 67, 19, 0)
s = 193: (0, 31, 20, 23, 59, 21, 205, 50, 71, 113, 33, 0)
s = 194: (0, 35, 26, 50, 48, 13, 109, 58, 55, 70, 34, 0)
s = 195: (0, 26, 16, 28, 55, 16, 101, 66, 48, 74, 31, 0)
s = 196: (0, 30, 13, 40, 89, 17, 145, 56, 83, 61, 26, 0)
s = 197: (0, 41, 21, 29, 56, 23, 209, 108, 77, 62, 33, 0)
s = 198: (0, 33, 9, 36, 41, 24, 232, 75, 108, 65, 23, 0)
s = 199: (0, 29, 20, 21, 80, 22, 86, 52, 145, 90, 38, 0)
s = 200: (0, 33, 14, 31, 82, 22, 91, 53, 68, 68, 23, 0)
------------------------------------------------------------------------
RESOURCE k = 2
s = 1: (0, 12, 11, 9, 47, 5, 35, 26, 25, 84, 5, 0)
s = 2: (0, 12, 16, 6, 29, 7, 51, 27, 37, 64, 10, 0)
s = 3: (0, 11, 18, 5, 32, 4, 60, 29, 33, 40, 8, 0)
s = 4: (0, 7, 19, 8, 31, 7, 41, 16, 18, 61, 5, 0)
s = 5: (0, 10, 14, 8, 38, 5, 45, 22, 34, 77, 5, 0)
s = 6: (0, 8, 14, 5, 30, 5, 35, 20, 20, 83, 6, 0)
s = 7: (0, 9, 14, 7, 32, 4, 29, 25, 22, 41, 6, 0)
s = 8: (0, 5, 17, 7, 53, 5, 65, 42, 29, 62, 6, 0)
s = 9: (0, 9, 11, 11, 30, 4, 75, 25, 38, 88, 8, 0)
s = 10: (0, 10, 13, 10, 49, 6, 58, 22, 30, 39, 4, 0)
s = 11: (0, 9, 24, 4, 30, 5, 44, 29, 20, 64, 7, 0)
s = 12: (0, 9, 17, 7, 44, 5, 33, 36, 17, 37, 7, 0)
s = 13: (0, 9, 28, 7, 26, 4, 28, 33, 24, 56, 7, 0)
s = 14: (0, 11, 23, 8, 50, 7, 31, 22, 21, 58, 7, 0)
s = 15: (0, 6, 14, 11, 38, 6, 41, 28, 25, 37, 8, 0)
s = 16: (0, 6, 18, 4, 30, 5, 52, 38, 28, 49, 6, 0)
s = 17: (0, 8, 20, 9, 45, 5, 69, 20, 34, 34, 9, 0)
s = 18: (0, 10, 14, 6, 43, 4, 40, 31, 18, 76, 6, 0)
s = 19: (0, 6, 21, 6, 37, 7, 49, 42, 29, 40, 6, 0)
s = 20: (0, 8, 14, 6, 47, 4, 67, 19, 48, 32, 4, 0)
s = 21: (0, 12, 12, 8, 41, 5, 50, 17, 36, 33, 7, 0)
s = 22: (0, 10, 20, 5, 28, 5, 36, 20, 28, 43, 8, 0)
s = 23: (0, 9, 12, 9, 36, 4, 62, 30, 19, 34, 10, 0)
s = 24: (0, 9, 19, 6, 44, 9, 51, 35, 40, 43, 11, 0)
s = 25: (0, 8, 17, 5, 27, 5, 55, 50, 35, 53, 6, 0)
s = 26: (0, 9, 18, 6, 24, 5, 32, 36, 31, 99, 9, 0)
s = 27: (0, 10, 31, 7, 39, 6, 40, 37, 21, 52, 7, 0)
s = 28: (0, 11, 14, 5, 53, 4, 68, 27, 25, 32, 6, 0)
s = 29: (0, 6, 20, 6, 23, 6, 46, 21, 32, 63, 5, 0)
s = 30: (0, 5, 18, 6, 41, 4, 45, 22, 22, 50, 5, 0)
s = 31: (0, 9, 25, 7, 43, 6, 64, 34, 31, 62, 4, 0)
s = 32: (0, 8, 20, 5, 32, 5, 61, 37, 27, 37, 7, 0)
s = 33: (0, 7, 19, 7, 27, 5, 68, 16, 23, 31, 7, 0)
s = 34: (0, 7, 18, 8, 45, 5, 49, 20, 31, 48, 4, 0)
s = 35: (0, 5, 23, 4, 43, 5, 41, 20, 19, 51, 5, 0)
s = 36: (0, 6, 13, 7, 31, 6, 54, 22, 36, 65, 6, 0)
s = 37: (0, 12, 21, 5, 56, 6, 53, 37, 37, 44, 7, 0)
s = 38: (0, 7, 20, 8, 42, 6, 49, 44, 26, 36, 6, 0)
s = 39: (0, 9, 10, 7, 25, 4, 59, 16, 38, 49, 5, 0)
s = 40: (0, 10, 13, 4, 33, 6, 46, 38, 24, 68, 8, 0)
s = 41: (0, 13, 9, 6, 25, 7, 58, 22, 21, 70, 6, 0)
s = 42: (0, 6, 17, 5, 37, 6, 60, 22, 34, 67, 7, 0)
s = 43: (0, 9, 19, 4, 31, 5, 37, 21, 20, 40, 6, 0)
s = 44: (0, 10, 18, 10, 28, 4, 57, 30, 30, 55, 5, 0)
s = 45: (0, 8, 25, 8, 46, 4, 58, 25, 24, 45, 4, 0)
s = 46: (0, 13, 14, 6, 38, 3, 35, 25, 46, 65, 5, 0)
s = 47: (0, 10, 15, 6, 52, 4, 49, 24, 26, 54, 5, 0)
s = 48: (0, 5, 9, 6, 26, 4, 73, 28, 24, 78, 8, 0)
s = 49: (0, 9, 9, 10, 41, 5, 46, 34, 29, 40, 11, 0)
s = 50: (0, 10, 16, 6, 35, 5, 31, 31, 37, 54, 5, 0)
s = 51: (0, 5, 17, 6, 20, 8, 43, 22, 31, 79, 6, 0)
s = 52: (0, 9, 17, 8, 41, 4, 61, 22, 25, 35, 6, 0)
s = 53: (0, 5, 17, 4, 66, 5, 65, 18, 23, 52, 6, 0)
s = 54: (0, 11, 16, 8, 63, 6, 52, 19, 32, 85, 6, 0)
s = 55: (0, 10, 21, 6, 32, 4, 70, 29, 28, 44, 9, 0)
s = 56: (0, 12, 13, 5, 36, 6, 48, 31, 27, 57, 7, 0)
s = 57: (0, 10, 14, 4, 49, 4, 67, 30, 25, 51, 10, 0)
s = 58: (0, 8, 26, 6, 48, 6, 58, 20, 18, 65, 8, 0)
s = 59: (0, 6, 18, 6, 33, 5, 36, 38, 40, 75, 7, 0)
s = 60: (0, 14, 11, 7, 31, 6, 48, 22, 36, 64, 4, 0)
s = 61: (0, 6, 12, 7, 37, 8, 39, 44, 28, 69, 7, 0)
s = 62: (0, 13, 17, 8, 54, 8, 56, 37, 35, 45, 7, 0)
s = 63: (0, 8, 10, 5, 41, 5, 63, 32, 56, 65, 5, 0)
s = 64: (0, 10, 29, 6, 39, 9, 57, 27, 35, 74, 8, 0)
s = 65: (0, 11, 12, 7, 46, 9, 42, 27, 26, 70, 6, 0)
s = 66: (0, 8, 12, 11, 39, 8, 46, 17, 40, 52, 8, 0)
s = 67: (0, 8, 15, 6, 22, 6, 55, 54, 27, 92, 6, 0)
s = 68: (0, 6, 15, 6, 35, 4, 61, 38, 29, 52, 4, 0)
s = 69: (0, 9, 18, 12, 76, 4, 34, 40, 39, 36, 8, 0)
s = 70: (0, 9, 21, 6, 25, 6, 41, 23, 21, 39, 8, 0)
s = 71: (0, 8, 13, 6, 32, 5, 37, 22, 40, 41, 6, 0)
s = 72: (0, 10, 16, 13, 31, 5, 55, 37, 19, 39, 8, 0)
s = 73: (0, 11, 29, 7, 29, 4, 71, 25, 19, 31, 4, 0)
s = 74: (0, 9, 23, 5, 44, 5, 55, 23, 18, 60, 6, 0)
s = 75: (0, 6, 19, 6, 30, 4, 50, 21, 36, 60, 6, 0)
s = 76: (0, 11, 19, 7, 34, 5, 30, 31, 40, 65, 6, 0)
s = 77: (0, 11, 10, 5, 49, 4, 45, 28, 26, 49, 5, 0)
s = 78: (0, 6, 32, 4, 57, 9, 45, 29, 22, 35, 7, 0)
s = 79: (0, 8, 14, 7, 35, 5, 51, 30, 31, 61, 8, 0)
s = 80: (0, 9, 22, 5, 28, 8, 71, 25, 28, 50, 4, 0)
s = 81: (0, 12, 20, 10, 51, 4, 29, 22, 32, 71, 4, 0)
s = 82: (0, 11, 24, 8, 27, 5, 65, 35, 25, 38, 8, 0)
s = 83: (0, 12, 21, 10, 30, 9, 55, 38, 29, 39, 6, 0)
s = 84: (0, 15, 16, 10, 32, 6, 41, 47, 36, 75, 7, 0)
s = 85: (0, 8, 17, 6, 44, 4, 57, 26, 39, 44, 9, 0)
s = 86: (0, 8, 19, 8, 20, 5, 58, 46, 35, 30, 5, 0)
s = 87: (0, 8, 22, 6, 31, 5, 30, 36, 17, 67, 6, 0)
s = 88: (0, 7, 29, 11, 47, 6, 30, 28, 30, 100, 6, 0)
s = 89: (0, 8, 16, 5, 30, 7, 64, 29, 43, 53, 6, 0)
s = 90: (0, 10, 24, 7, 33, 7, 52, 23, 36, 48, 6, 0)
s = 91: (0, 5, 19, 4, 33, 4, 36, 32, 27, 69, 5, 0)
s = 92: (0, 8, 21, 10, 47, 5, 42, 27, 28, 55, 5, 0)
s = 93: (0, 10, 10, 7, 56, 7, 72, 29, 35, 45, 8, 0)
s = 94: (0, 7, 21, 8, 30, 7, 46, 35, 19, 41, 6, 0)
s = 95: (0, 12, 13, 5, 30, 5, 45, 38, 34, 31, 6, 0)
s = 96: (0, 10, 12, 5, 38, 4, 35, 46, 27, 41, 4, 0)
s = 97: (0, 14, 15, 6, 44, 9, 51, 23, 43, 31, 5, 0)
s = 98: (0, 9, 21, 10, 44, 6, 46, 36, 38, 49, 4, 0)
s = 99: (0, 8, 21, 5, 36, 4, 42, 29, 25, 49, 4, 0)
s = 100: (0, 8, 17, 8, 35, 5, 61, 30, 22, 67, 9, 0)
s = 101: (0, 10, 14, 6, 30, 4, 58, 45, 22, 37, 5, 0)
s = 102: (0, 8, 15, 6, 23, 6, 38, 28, 22, 68, 6, 0)
s = 103: (0, 5, 17, 9, 45, 4, 52, 32, 29, 44, 4, 0)
s = 104: (0, 7, 17, 8, 27, 7, 63, 32, 34, 56, 6, 0)
s = 105: (0, 12, 19, 6, 49, 5, 57, 31, 35, 54, 5, 0)
s = 106: (0, 11, 13, 6, 28, 7, 38, 24, 24, 54, 6, 0)
s = 107: (0, 8, 13, 9, 33, 5, 37, 19, 29, 55, 9, 0)
s = 108: (0, 11, 12, 6, 26, 5, 43, 37, 23, 78, 4, 0)
s = 109: (0, 8, 19, 4, 30, 4, 34, 23, 37, 68, 11, 0)
s = 110: (0, 9, 18, 8, 36, 6, 49, 24, 25, 43, 7, 0)
s = 111: (0, 6, 25, 7, 31, 5, 45, 29, 30, 42, 5, 0)
s = 112: (0, 12, 13, 7, 29, 4, 57, 18, 17, 43, 6, 0)
s = 113: (0, 10, 19, 6, 38, 6, 38, 24, 41, 48, 4, 0)
s = 114: (0, 7, 12, 6, 29, 8, 81, 24, 24, 32, 5, 0)
s = 115: (0, 7, 19, 5, 29, 6, 32, 35, 27, 56, 6, 0)
s = 116: (0, 9, 22, 7, 45, 6, 38, 25, 35, 35, 8, 0)
s = 117: (0, 12, 13, 5, 58, 8, 45, 26, 27, 66, 7, 0)
s = 118: (0, 10, 12, 5, 32, 4, 39, 24, 27, 72, 4, 0)
s = 119: (0, 8, 24, 5, 43, 6, 48, 32, 32, 68, 5, 0)
s = 120: (0, 8, 17, 6, 27, 5, 69, 33, 33, 42, 5, 0)
s = 121: (0, 7, 16, 6, 34, 6, 37, 22, 34, 82, 7, 0)
s = 122: (0, 12, 9, 6, 47, 3, 66, 16, 24, 42, 5, 0)
s = 123: (0, 10, 20, 6, 35, 4, 60, 25, 22, 44, 8, 0)
s = 124: (0, 10, 21, 7, 36, 6, 38, 25, 28, 68, 4, 0)
s = 125: (0, 7, 18, 8, 54, 6, 53, 41, 24, 72, 4, 0)
s = 126: (0, 10, 15, 9, 54, 5, 55, 27, 41, 64, 7, 0)
s = 127: (0, 8, 16, 5, 41, 5, 65, 19, 52, 67, 6, 0)
s = 128: (0, 6, 9, 6, 28, 4, 37, 37, 40, 61, 6, 0)
s = 129: (0, 8, 20, 9, 51, 5, 60, 24, 29, 41, 8, 0)
s = 130: (0, 6, 14, 10, 49, 5, 76, 33, 23, 80, 6, 0)
s = 131: (0, 12, 20, 6, 54, 8, 81, 22, 26, 49, 5, 0)
s = 132: (0, 5, 12, 5, 23, 5, 60, 32, 18, 87, 6, 0)
s = 133: (0, 8, 13, 8, 27, 6, 37, 28, 32, 52, 9, 0)
s = 134: (0, 8, 18, 7, 54, 5, 57, 30, 30, 55, 5, 0)
s = 135: (0, 8, 27, 7, 27, 9, 58, 22, 44, 36, 5, 0)
s = 136: (0, 8, 23, 6, 44, 6, 74, 25, 23, 60, 5, 0)
s = 137: (0, 7, 12, 4, 40, 5, 41, 30, 29, 54, 6, 0)
s = 138: (0, 9, 16, 5, 49, 5, 26, 25, 24, 40, 5, 0)
s = 139: (0, 11, 25, 4, 24, 6, 55, 31, 31, 41, 7, 0)
s = 140: (0, 6, 16, 7, 62, 4, 28, 26, 27, 43, 5, 0)
s = 141: (0, 10, 26, 6, 40, 6, 44, 36, 41, 82, 8, 0)
s = 142: (0, 10, 12, 6, 56, 4, 46, 26, 37, 82, 6, 0)
s = 143: (0, 11, 22, 5, 26, 6, 69, 19, 26, 37, 5, 0)
s = 144: (0, 15, 15, 6, 31, 5, 50, 21, 34, 42, 9, 0)
s = 145: (0, 11, 22, 6, 51, 5, 29, 43, 35, 51, 6, 0)
s = 146: (0, 8, 26, 7, 26, 4, 51, 16, 21, 49, 7, 0)
s = 147: (0, 8, 21, 4, 31, 5, 32, 25, 18, 47, 6, 0)
s = 148: (0, 6, 20, 6, 38, 6, 43, 28, 25, 61, 8, 0)
s = 149: (0, 11, 16, 6, 37, 5, 66, 31, 27, 43, 10, 0)
s = 150: (0, 6, 14, 10, 47, 6, 44, 24, 32, 50, 8, 0)
s = 151: (0, 12, 12, 10, 33, 4, 38, 16, 42, 50, 10, 0)
s = 152: (0, 6, 21, 5, 28, 8, 39, 21, 22, 84, 8, 0)
s = 153: (0, 9, 10, 7, 25, 7, 58, 20, 29, 39, 7, 0)
s = 154: (0, 10, 13, 4, 27, 5, 57, 34, 34, 47, 6, 0)
s = 155: (0, 8, 17, 6, 36, 6, 64, 30, 23, 45, 7, 0)
s = 156: (0, 10, 11, 5, 53, 7, 68, 31, 34, 52, 6, 0)
s = 157: (0, 9, 15, 9, 52, 7, 57, 19, 26, 53, 6, 0)
s = 158: (0, 8, 23, 7, 49, 3, 40, 34, 28, 46, 5, 0)
s = 159: (0, 10, 28, 7, 37, 4, 43, 27, 21, 64, 7, 0)
s = 160: (0, 17, 15, 8, 26, 7, 59, 22, 24, 38, 6, 0)
s = 161: (0, 10, 10, 5, 46, 5, 58, 19, 31, 69, 5, 0)
s = 162: (0, 11, 20, 8, 33, 4, 60, 32, 44, 42, 7, 0)
s = 163: (0, 9, 16, 8, 54, 4, 45, 25, 21, 85, 6, 0)
s = 164: (0, 6, 11, 7, 28, 7, 41, 24, 40, 65, 4, 0)
s = 165: (0, 6, 17, 9, 44, 6, 46, 25, 23, 29, 7, 0)
s = 166: (0, 7, 13, 8, 40, 8, 30, 45, 23, 50, 7, 0)
s = 167: (0, 11, 25, 4, 49, 5, 48, 41, 20, 44, 6, 0)
s = 168: (0, 8, 20, 8, 39, 3, 63, 29, 37, 41, 6, 0)
s = 169: (0, 7, 17, 4, 52, 5, 56, 37, 34, 50, 6, 0)
s = 170: (0, 5, 19, 5, 41, 6, 56, 21, 42, 51, 5, 0)
s = 171: (0, 11, 18, 7, 43, 8, 42, 23, 21, 54, 9, 0)
s = 172: (0, 7, 23, 5, 46, 4, 29, 23, 35, 44, 10, 0)
s = 173: (0, 10, 15, 10, 46, 6, 92, 25, 28, 46, 12, 0)
s = 174: (0, 7, 15, 7, 38, 7, 55, 39, 25, 39, 7, 0)
s = 175: (0, 6, 14, 8, 30, 8, 55, 30, 38, 57, 8, 0)
s = 176: (0, 9, 13, 6, 36, 5, 57, 42, 22, 47, 6, 0)
s = 177: (0, 11, 13, 5, 53, 6, 44, 38, 27, 59, 4, 0)
s = 178: (0, 10, 24, 4, 53, 7, 38, 21, 24, 58, 8, 0)
s = 179: (0, 9, 12, 8, 30, 7, 40, 30, 34, 35, 7, 0)
s = 180: (0, 11, 11, 7, 26, 4, 60, 24, 28, 49, 6, 0)
s = 181: (0, 7, 23, 5, 45, 10, 51, 47, 26, 37, 6, 0)
s = 182: (0, 9, 11, 5, 28, 5, 36, 21, 55, 35, 7, 0)
s = 183: (0, 11, 27, 7, 37, 8, 38, 23, 27, 65, 9, 0)
s = 184: (0, 11, 11, 6, 37, 4, 44, 33, 24, 40, 5, 0)
s = 185: (0, 6, 10, 11, 45, 4, 35, 32, 27, 61, 8, 0)
s = 186: (0, 7, 16, 6, 38, 5, 28, 23, 22, 55, 5, 0)
s = 187: (0, 11, 16, 7, 21, 4, 45, 41, 33, 74, 5, 0)
s = 188: (0, 6, 15, 9, 31, 7, 29, 31, 30, 51, 5, 0)
s = 189: (0, 8, 15, 9, 41, 5, 69, 24, 35, 53, 8, 0)
s = 190: (0, 9, 20, 8, 38, 5, 64, 31, 27, 42, 5, 0)
s = 191: (0, 7, 16, 5, 38, 5, 33, 17, 33, 50, 4, 0)
s = 192: (0, 8, 15, 7, 51, 6, 33, 21, 37, 50, 4, 0)
s = 193: (0, 9, 20, 5, 33, 7, 73, 21, 26, 85, 7, 0)
s = 194: (0, 10, 26, 10, 27, 4, 39, 24, 20, 52, 7, 0)
s = 195: (0, 8, 16, 6, 31, 5, 36, 27, 18, 56, 6, 0)
s = 196: (0, 9, 13, 8, 50, 6, 51, 23, 30, 46, 5, 0)
s = 197: (0, 12, 21, 6, 32, 8, 74, 45, 28, 47, 7, 0)
s = 198: (0, 10, 9, 7, 23, 8, 82, 31, 39, 49, 5, 0)
s = 199: (0, 9, 20, 4, 45, 7, 31, 22, 52, 68, 8, 0)
s = 200: (0, 10, 14, 6, 46, 7, 32, 22, 25, 51, 5, 0)
************************************************************************
ES/LS-VALUES:
jobnr.   ES(i)    LS(i)
------------------------------------------------------------------------
  0        0        0
  1        0       46
  2        0       36
  3        0       67
  4        8       55
  5        8       62
  6        4       40
  7       19       56
  8       26       64
  9       10       64
 10       19       72
 11       37       76
************************************************************************
BIG-M-VALUES:
M1 = 60, M2 = 352
************************************************************************
